benchmarks_CP/INST_49x49/40/inst49x49_40_97.dzn
S=7;
start=[|
-1,	14,	-1,	33,	5,	-1,	-1,	-1,	-1,	-1,	28,	-1,	15,	-1,	-1,	36,	18,	26,	34,	4,	-1,	25,	-1,	41,	-1,	-1,	17,	30,	22,	-1,	2,	-1,	20,	-1,	-1,	29,	-1,	-1,	-1,	43,	-1,	-1,	-1,	-1,	-1,	-1,	42,	-1,	-1|
-1,	17,	15,	8,	-1,	-1,	-1,	-1,	20,	23,	30,	5,	-1,	-1,	-1,	-1,	37,	41,	21,	-1,	12,	35,	14,	-1,	-1,	-1,	-1,	48,	7,	27,	24,	26,	-1,	-1,	-1,	-1,	-1,	39,	2,	-1,	36,	-1,	-1,	34,	-1,	-1,	40,	-1,	-1|
25,	-1,	-1,	-1,	-1,	47,	-1,	-1,	-1,	-1,	-1,	-1,	-1,	38,	45,	-1,	14,	-1,	-1,	-1,	24,	-1,	8,	4,	-1,	26,	-1,	-1,	-1,	-1,	-1,	-1,	16,	30,	-1,	-1,	18,	-1,	-1,	13,	-1,	23,	-1,	-1,	-1,	36,	28,	-1,	-1|
26,	-1,	37,	-1,	4,	10,	39,	45,	-1,	24,	48,	44,	12,	17,	35,	-1,	-1,	-1,	16,	38,	-1,	-1,	-1,	15,	-1,	-1,	-1,	-1,	-1,	18,	-1,	-1,	-1,	43,	6,	-1,	7,	-1,	-1,	-1,	-1,	-1,	31,	-1,	-1,	27,	-1,	-1,	-1|
21,	-1,	31,	46,	-1,	-1,	22,	-1,	-1,	-1,	26,	-1,	13,	-1,	-1,	27,	5,	23,	40,	-1,	8,	-1,	-1,	-1,	32,	12,	3,	24,	-1,	-1,	36,	-1,	-1,	28,	-1,	37,	-1,	-1,	-1,	38,	-1,	-1,	-1,	4,	-1,	-1,	-1,	-1,	-1|
-1,	-1,	36,	-1,	-1,	18,	6,	-1,	-1,	-1,	-1,	-1,	-1,	-1,	-1,	22,	-1,	-1,	46,	-1,	-1,	34,	-1,	-1,	11,	-1,	44,	-1,	48,	38,	-1,	-1,	-1,	17,	5,	4,	1,	-1,	16,	-1,	33,	40,	-1,	24,	-1,	-1,	-1,	-1,	21|
-1,	24,	-1,	30,	-1,	-1,	-1,	35,	-1,	21,	-1,	4,	16,	14,	33,	-1,	39,	-1,	1,	-1,	-1,	43,	-1,	-1,	-1,	29,	-1,	-1,	46,	40,	-1,	42,	23,	31,	-1,	-1,	-1,	28,	8,	27,	-1,	41,	-1,	18,	-1,	38,	26,	17,	-1|
-1,	-1,	-1,	-1,	43,	-1,	-1,	41,	-1,	-1,	-1,	-1,	-1,	25,	-1,	-1,	-1,	15,	-1,	1,	19,	30,	-1,	-1,	48,	-1,	16,	-1,	-1,	-1,	-1,	22,	-1,	-1,	-1,	-1,	-1,	-1,	38,	-1,	-1,	29,	24,	-1,	26,	3,	35,	21,	-1|
19,	-1,	45,	-1,	-1,	-1,	-1,	-1,	-1,	35,	2,	-1,	-1,	-1,	36,	20,	16,	-1,	41,	-1,	-1,	-1,	-1,	38,	-1,	-1,	-1,	-1,	-1,	39,	-1,	27,	-1,	-1,	18,	-1,	8,	-1,	33,	5,	-1,	-1,	9,	-1,	-1,	-1,	48,	4,	-1|
32,	-1,	-1,	-1,	16,	-1,	-1,	5,	-1,	-1,	-1,	17,	-1,	-1,	42,	29,	3,	-1,	-1,	-1,	-1,	47,	27,	39,	43,	-1,	-1,	-1,	-1,	-1,	-1,	19,	-1,	38,	14,	46,	-1,	-1,	-1,	1,	11,	-1,	-1,	-1,	-1,	-1,	-1,	-1,	30|
-1,	-1,	-1,	27,	11,	-1,	-1,	24,	26,	-1,	3,	21,	-1,	48,	-1,	-1,	-1,	2,	-1,	-1,	47,	-1,	12,	14,	-1,	-1,	-1,	-1,	40,	-1,	-1,	5,	9,	-1,	-1,	28,	32,	22,	-1,	-1,	4,	10,	36,	-1,	46,	-1,	31,	-1,	-1|
5,	35,	-1,	-1,	-1,	44,	-1,	1,	-1,	30,	10,	-1,	-1,	28,	-1,	-1,	-1,	46,	-1,	-1,	40,	-1,	-1,	-1,	8,	4,	-1,	-1,	-1,	-1,	-1,	41,	-1,	-1,	-1,	-1,	48,	6,	-1,	45,	-1,	15,	47,	23,	-1,	-1,	-1,	16,	-1|
24,	-1,	18,	-1,	17,	-1,	41,	-1,	37,	-1,	-1,	34,	22,	-1,	-1,	-1,	-1,	-1,	10,	-1,	38,	3,	-1,	-1,	-1,	21,	-1,	-1,	-1,	6,	-1,	-1,	2,	-1,	44,	36,	-1,	-1,	-1,	-1,	-1,	39,	-1,	8,	-1,	-1,	25,	-1,	-1|
4,	26,	-1,	-1,	-1,	46,	13,	20,	-1,	-1,	-1,	-1,	-1,	-1,	-1,	6,	-1,	14,	33,	31,	-1,	-1,	29,	2,	-1,	5,	34,	-1,	43,	15,	21,	-1,	17,	-1,	-1,	35,	-1,	47,	-1,	-1,	24,	3,	-1,	7,	-1,	10,	-1,	-1,	-1|
-1,	13,	-1,	34,	-1,	23,	-1,	16,	1,	-1,	39,	3,	31,	-1,	-1,	-1,	-1,	-1,	18,	12,	26,	-1,	-1,	33,	-1,	43,	-1,	-1,	-1,	-1,	48,	-1,	-1,	-1,	-1,	-1,	-1,	2,	-1,	-1,	-1,	-1,	35,	-1,	-1,	-1,	-1,	-1,	-1|
46,	-1,	16,	17,	2,	4,	19,	30,	-1,	22,	6,	-1,	36,	9,	10,	-1,	-1,	-1,	-1,	14,	-1,	13,	20,	18,	12,	-1,	-1,	23,	-1,	-1,	-1,	-1,	-1,	-1,	-1,	-1,	-1,	5,	39,	41,	-1,	-1,	-1,	-1,	42,	11,	-1,	-1,	-1|
-1,	-1,	47,	-1,	33,	-1,	-1,	19,	-1,	-1,	46,	12,	45,	-1,	-1,	-1,	-1,	49,	-1,	-1,	-1,	-1,	31,	21,	-1,	3,	14,	-1,	-1,	-1,	-1,	38,	-1,	42,	-1,	1,	23,	25,	30,	10,	-1,	-1,	-1,	-1,	-1,	-1,	-1,	43,	-1|
-1,	30,	42,	-1,	-1,	35,	32,	34,	-1,	-1,	43,	-1,	-1,	47,	23,	-1,	29,	-1,	15,	13,	45,	-1,	-1,	-1,	-1,	-1,	19,	37,	-1,	-1,	-1,	-1,	-1,	-1,	-1,	-1,	44,	-1,	-1,	-1,	-1,	27,	-1,	33,	21,	-1,	8,	5,	-1|
-1,	-1,	21,	12,	-1,	43,	-1,	4,	14,	-1,	-1,	24,	-1,	-1,	-1,	-1,	-1,	-1,	-1,	33,	-1,	-1,	-1,	-1,	-1,	-1,	47,	-1,	31,	25,	-1,	-1,	44,	-1,	40,	-1,	38,	-1,	-1,	-1,	-1,	-1,	-1,	-1,	13,	29,	27,	6,	-1|
-1,	-1,	-1,	-1,	-1,	-1,	26,	-1,	-1,	-1,	-1,	8,	35,	-1,	43,	31,	-1,	-1,	4,	-1,	-1,	11,	17,	-1,	-1,	-1,	-1,	2,	-1,	-1,	-1,	12,	-1,	-1,	-1,	-1,	-1,	-1,	-1,	-1,	16,	-1,	39,	47,	-1,	18,	-1,	23,	34|
-1,	-1,	24,	-1,	39,	-1,	31,	-1,	-1,	-1,	42,	-1,	27,	-1,	-1,	25,	2,	-1,	-1,	-1,	-1,	10,	-1,	-1,	44,	1,	40,	-1,	-1,	4,	-1,	-1,	-1,	-1,	-1,	-1,	-1,	26,	45,	35,	43,	-1,	-1,	-1,	12,	48,	-1,	-1,	16|
-1,	-1,	-1,	-1,	-1,	13,	-1,	-1,	-1,	-1,	-1,	-1,	-1,	29,	39,	-1,	-1,	8,	-1,	-1,	10,	-1,	47,	-1,	27,	25,	-1,	35,	5,	-1,	16,	40,	18,	-1,	33,	-1,	-1,	-1,	21,	-1,	6,	-1,	-1,	48,	-1,	31,	49,	19,	-1|
1,	-1,	-1,	18,	42,	-1,	35,	-1,	3,	2,	-1,	-1,	20,	-1,	7,	12,	13,	33,	-1,	-1,	-1,	-1,	-1,	-1,	-1,	-1,	-1,	-1,	-1,	46,	-1,	-1,	-1,	-1,	9,	-1,	47,	30,	28,	-1,	-1,	-1,	-1,	37,	17,	-1,	16,	25,	23|
36,	-1,	44,	-1,	40,	-1,	34,	-1,	-1,	-1,	-1,	7,	-1,	-1,	37,	24,	22,	-1,	28,	43,	-1,	20,	9,	-1,	-1,	-1,	-1,	-1,	47,	32,	-1,	3,	-1,	-1,	-1,	41,	-1,	8,	48,	-1,	-1,	26,	30,	-1,	15,	-1,	-1,	-1,	-1|
39,	19,	29,	20,	41,	-1,	4,	25,	-1,	-1,	-1,	-1,	-1,	-1,	11,	47,	-1,	-1,	26,	-1,	-1,	-1,	-1,	-1,	-1,	-1,	-1,	40,	1,	44,	31,	-1,	-1,	-1,	-1,	-1,	-1,	15,	-1,	33,	-1,	-1,	28,	43,	27,	2,	14,	-1,	-1|
-1,	9,	28,	-1,	-1,	-1,	-1,	-1,	-1,	27,	31,	-1,	48,	6,	-1,	-1,	-1,	32,	14,	20,	34,	2,	-1,	-1,	-1,	-1,	43,	33,	-1,	41,	38,	-1,	7,	-1,	-1,	44,	-1,	37,	-1,	-1,	-1,	-1,	-1,	-1,	24,	13,	47,	36,	-1|
43,	-1,	-1,	16,	-1,	-1,	-1,	14,	-1,	-1,	-1,	47,	33,	36,	-1,	-1,	-1,	-1,	-1,	35,	-1,	-1,	-1,	-1,	45,	-1,	-1,	-1,	-1,	30,	-1,	-1,	28,	-1,	-1,	-1,	-1,	-1,	4,	31,	-1,	-1,	34,	22,	-1,	-1,	3,	-1,	-1|
-1,	-1,	-1,	-1,	-1,	-1,	-1,	39,	30,	43,	-1,	37,	-1,	49,	19,	-1,	-1,	-1,	9,	3,	-1,	-1,	44,	-1,	-1,	-1,	4,	17,	10,	-1,	-1,	-1,	-1,	-1,	-1,	-1,	-1,	-1,	34,	-1,	2,	-1,	-1,	1,	-1,	-1,	46,	20,	40|
38,	-1,	-1,	-1,	-1,	14,	-1,	-1,	35,	25,	9,	-1,	-1,	-1,	-1,	-1,	-1,	-1,	-1,	18,	49,	-1,	24,	3,	36,	-1,	-1,	-1,	-1,	-1,	-1,	1,	-1,	-1,	-1,	15,	19,	-1,	27,	-1,	-1,	-1,	-1,	-1,	-1,	-1,	4,	42,	-1|
11,	-1,	-1,	35,	-1,	-1,	-1,	-1,	-1,	-1,	32,	-1,	-1,	41,	-1,	-1,	-1,	37,	24,	-1,	-1,	12,	-1,	45,	1,	-1,	-1,	39,	6,	34,	-1,	-1,	-1,	46,	23,	-1,	28,	38,	-1,	-1,	9,	48,	-1,	-1,	30,	16,	-1,	-1,	22|
-1,	-1,	23,	4,	22,	-1,	-1,	-1,	-1,	49,	-1,	-1,	46,	-1,	41,	-1,	42,	-1,	-1,	7,	11,	26,	-1,	-1,	-1,	47,	21,	-1,	20,	28,	-1,	-1,	5,	-1,	-1,	-1,	-1,	-1,	-1,	-1,	-1,	44,	-1,	-1,	-1,	9,	-1,	-1,	-1|
-1,	-1,	-1,	13,	-1,	-1,	-1,	-1,	-1,	-1,	-1,	-1,	-1,	-1,	-1,	-1,	-1,	-1,	-1,	-1,	-1,	-1,	30,	-1,	-1,	6,	33,	19,	27,	-1,	26,	7,	-1,	18,	-1,	-1,	-1,	35,	-1,	20,	-1,	-1,	-1,	21,	-1,	32,	23,	14,	2|
-1,	-1,	-1,	-1,	-1,	-1,	-1,	-1,	-1,	-1,	-1,	-1,	47,	-1,	-1,	-1,	23,	21,	22,	-1,	1,	17,	-1,	-1,	-1,	49,	-1,	16,	30,	35,	-1,	25,	-1,	-1,	-1,	11,	12,	34,	-1,	-1,	-1,	33,	8,	-1,	36,	26,	-1,	-1,	28|
20,	-1,	-1,	-1,	-1,	-1,	-1,	48,	5,	-1,	-1,	-1,	6,	-1,	8,	-1,	-1,	38,	-1,	-1,	-1,	32,	7,	-1,	9,	40,	-1,	-1,	-1,	13,	-1,	33,	15,	-1,	16,	30,	-1,	-1,	-1,	29,	14,	-1,	-1,	-1,	11,	-1,	-1,	-1,	47|
-1,	45,	-1,	-1,	-1,	34,	-1,	-1,	-1,	16,	-1,	-1,	19,	4,	3,	33,	-1,	-1,	32,	-1,	20,	-1,	-1,	25,	-1,	-1,	-1,	10,	-1,	-1,	-1,	29,	14,	9,	-1,	22,	46,	-1,	6,	-1,	26,	-1,	-1,	39,	-1,	-1,	1,	44,	-1|
-1,	16,	-1,	-1,	34,	-1,	-1,	22,	18,	-1,	29,	-1,	42,	-1,	-1,	-1,	-1,	-1,	-1,	-1,	-1,	-1,	-1,	12,	-1,	-1,	32,	4,	-1,	45,	-1,	-1,	-1,	-1,	30,	-1,	49,	40,	13,	25,	47,	-1,	-1,	41,	-1,	37,	-1,	39,	-1|
-1,	4,	-1,	-1,	-1,	9,	-1,	31,	-1,	36,	16,	14,	-1,	-1,	-1,	42,	7,	-1,	-1,	32,	18,	-1,	41,	-1,	37,	34,	13,	-1,	29,	-1,	-1,	11,	35,	-1,	-1,	-1,	-1,	-1,	44,	12,	21,	-1,	46,	19,	33,	-1,	-1,	-1,	-1|
31,	42,	-1,	-1,	-1,	30,	-1,	-1,	-1,	-1,	-1,	-1,	21,	-1,	-1,	-1,	-1,	-1,	-1,	-1,	43,	9,	-1,	26,	5,	19,	-1,	28,	25,	3,	-1,	-1,	-1,	24,	-1,	-1,	6,	36,	-1,	-1,	27,	-1,	29,	14,	-1,	34,	-1,	-1,	-1|
-1,	-1,	-1,	-1,	24,	-1,	14,	-1,	-1,	-1,	-1,	32,	4,	12,	-1,	11,	34,	-1,	29,	-1,	-1,	-1,	-1,	-1,	25,	10,	-1,	-1,	-1,	5,	-1,	46,	-1,	-1,	-1,	-1,	33,	-1,	-1,	-1,	28,	31,	-1,	-1,	-1,	-1,	30,	-1,	42|
-1,	-1,	-1,	26,	-1,	-1,	-1,	13,	38,	-1,	-1,	-1,	24,	19,	-1,	39,	-1,	-1,	25,	2,	31,	40,	-1,	-1,	23,	-1,	-1,	44,	42,	33,	-1,	18,	27,	-1,	41,	34,	-1,	-1,	15,	46,	-1,	-1,	12,	-1,	-1,	4,	9,	48,	1|
-1,	-1,	-1,	-1,	-1,	12,	-1,	-1,	-1,	-1,	-1,	-1,	2,	35,	-1,	-1,	30,	-1,	-1,	46,	28,	42,	11,	29,	-1,	-1,	24,	14,	-1,	31,	-1,	44,	-1,	-1,	-1,	10,	-1,	1,	22,	3,	-1,	-1,	27,	36,	-1,	23,	21,	13,	32|
-1,	33,	46,	32,	49,	-1,	-1,	-1,	-1,	-1,	15,	10,	25,	40,	-1,	-1,	1,	27,	-1,	-1,	-1,	-1,	-1,	22,	-1,	7,	-1,	3,	16,	-1,	13,	-1,	-1,	-1,	43,	-1,	-1,	-1,	-1,	-1,	38,	-1,	-1,	20,	-1,	-1,	-1,	-1,	-1|
-1,	-1,	-1,	-1,	-1,	-1,	-1,	46,	-1,	-1,	41,	26,	-1,	-1,	-1,	-1,	-1,	-1,	-1,	-1,	9,	29,	-1,	-1,	16,	38,	-1,	43,	34,	-1,	-1,	-1,	-1,	-1,	15,	-1,	-1,	-1,	-1,	-1,	48,	-1,	-1,	-1,	31,	47,	-1,	45,	3|
-1,	37,	17,	31,	-1,	-1,	9,	-1,	45,	-1,	7,	-1,	-1,	18,	22,	-1,	-1,	11,	-1,	34,	-1,	8,	-1,	24,	-1,	20,	28,	47,	-1,	2,	-1,	-1,	-1,	13,	-1,	-1,	41,	4,	5,	15,	-1,	6,	-1,	27,	-1,	19,	-1,	-1,	-1|
23,	-1,	-1,	-1,	26,	16,	15,	-1,	9,	-1,	40,	-1,	-1,	5,	48,	28,	6,	13,	-1,	29,	14,	-1,	-1,	-1,	42,	2,	-1,	12,	-1,	1,	3,	-1,	-1,	-1,	-1,	-1,	-1,	33,	-1,	34,	-1,	49,	-1,	-1,	-1,	-1,	39,	-1,	24|
47,	-1,	-1,	-1,	-1,	2,	-1,	37,	-1,	-1,	-1,	-1,	-1,	-1,	-1,	5,	-1,	24,	-1,	-1,	15,	-1,	3,	-1,	46,	-1,	-1,	-1,	-1,	-1,	6,	31,	-1,	-1,	-1,	26,	30,	10,	1,	-1,	-1,	38,	-1,	-1,	-1,	-1,	-1,	-1,	-1|
-1,	41,	-1,	-1,	-1,	-1,	24,	23,	48,	6,	-1,	-1,	8,	-1,	-1,	7,	-1,	-1,	3,	-1,	-1,	-1,	26,	-1,	4,	44,	30,	-1,	33,	29,	5,	-1,	42,	47,	-1,	-1,	-1,	-1,	46,	37,	-1,	-1,	-1,	49,	9,	-1,	11,	-1,	18|
44,	12,	10,	3,	-1,	1,	-1,	-1,	-1,	-1,	4,	-1,	-1,	-1,	38,	-1,	8,	-1,	-1,	-1,	2,	-1,	15,	-1,	34,	45,	-1,	-1,	11,	-1,	-1,	49,	-1,	41,	-1,	32,	-1,	18,	-1,	7,	-1,	-1,	21,	-1,	43,	5,	33,	-1,	-1|
-1,	25,	-1,	45,	-1,	-1,	-1,	32,	22,	-1,	33,	-1,	1,	-1,	46,	-1,	47,	-1,	-1,	-1,	-1,	-1,	49,	37,	6,	-1,	-1,	-1,	19,	48,	-1,	-1,	36,	-1,	-1,	-1,	-1,	-1,	-1,	44,	-1,	-1,	42,	30,	-1,	-1,	12,	-1,	-1|];
