sudoku-ls/benchmarks_LEQ/INST_49x49/40/inst49x49_40_97.txt
7
1
45	-1	49	-1	5	-1	-1	27	-1	47	-1	-1	-1	32	31	-1	-1	-1	-1	-1	-1	-1	-1	41	-1	-1	-1	-1	-1	8	2	-1	20	3	-1	-1	11	-1	-1	43	-1	-1	-1	16	-1	-1	42	-1	-1
16	-1	15	-1	38	-1	-1	29	-1	-1	30	-1	18	-1	-1	-1	-1	41	-1	-1	-1	35	-1	-1	-1	46	49	-1	7	27	24	-1	-1	-1	-1	-1	-1	-1	-1	22	36	-1	11	-1	-1	-1	-1	32	33
-1	-1	35	11	44	47	-1	2	-1	-1	-1	-1	-1	-1	-1	-1	14	17	-1	-1	24	-1	8	4	31	26	10	27	-1	-1	-1	-1	-1	30	-1	-1	-1	-1	-1	13	-1	-1	-1	46	5	36	-1	-1	-1
26	-1	-1	-1	4	-1	39	-1	-1	24	-1	-1	-1	-1	35	2	-1	-1	-1	-1	32	-1	-1	15	33	36	5	20	49	-1	-1	-1	-1	-1	-1	14	-1	-1	-1	21	-1	34	31	3	-1	27	22	-1	13
-1	34	-1	46	9	-1	-1	49	-1	33	26	41	-1	-1	-1	27	-1	23	-1	-1	8	18	-1	-1	-1	12	-1	-1	-1	-1	-1	14	-1	28	29	-1	-1	-1	35	38	-1	47	20	-1	39	-1	-1	30	25
27	2	-1	-1	13	-1	-1	-1	19	3	-1	-1	37	-1	29	22	20	-1	-1	-1	-1	-1	-1	-1	-1	9	-1	-1	48	38	-1	-1	45	17	-1	4	-1	32	16	26	-1	-1	-1	-1	14	-1	-1	7	21
7	-1	-1	30	32	-1	-1	-1	36	21	11	4	-1	14	33	10	-1	-1	-1	-1	13	43	-1	19	2	-1	22	6	-1	40	-1	42	23	-1	34	48	-1	-1	-1	-1	45	-1	44	18	-1	-1	26	17	-1
-1	-1	-1	9	43	-1	-1	41	-1	14	-1	-1	40	25	18	-1	-1	-1	-1	-1	19	-1	13	-1	-1	28	-1	-1	-1	-1	46	22	-1	-1	47	-1	-1	-1	-1	-1	17	-1	-1	-1	-1	-1	35	21	20
-1	47	-1	21	-1	42	-1	-1	-1	-1	-1	29	32	-1	36	20	-1	-1	-1	-1	-1	-1	22	38	-1	37	26	-1	28	-1	7	-1	24	1	-1	-1	-1	-1	-1	-1	40	-1	-1	17	-1	-1	-1	-1	-1
-1	40	-1	-1	16	15	25	-1	-1	9	-1	-1	-1	8	-1	-1	-1	-1	-1	-1	22	-1	-1	39	-1	24	18	31	-1	-1	-1	-1	-1	38	-1	-1	-1	41	-1	1	-1	-1	-1	-1	-1	-1	6	2	30
-1	6	38	-1	-1	7	37	-1	26	-1	-1	-1	-1	-1	-1	35	43	-1	13	-1	-1	41	-1	-1	19	-1	-1	25	-1	16	29	-1	9	20	45	28	32	-1	-1	30	-1	-1	-1	-1	46	-1	31	15	39
5	35	-1	14	-1	-1	-1	1	13	-1	-1	-1	-1	28	-1	-1	-1	46	39	-1	40	-1	33	-1	-1	-1	9	36	-1	26	-1	-1	-1	-1	-1	21	-1	-1	19	45	-1	-1	-1	-1	-1	-1	-1	16	-1
24	-1	-1	-1	-1	-1	-1	12	37	42	47	34	22	-1	26	32	-1	-1	-1	28	38	-1	35	-1	15	-1	-1	-1	-1	-1	-1	-1	2	33	-1	-1	-1	-1	-1	-1	-1	39	-1	-1	-1	-1	-1	-1	5
-1	26	-1	1	-1	46	13	-1	23	-1	19	-1	-1	27	-1	6	-1	14	33	31	-1	44	29	-1	-1	-1	34	-1	-1	15	21	36	17	8	-1	35	25	47	18	-1	24	-1	-1	7	-1	-1	-1	49	37
-1	-1	9	-1	-1	-1	40	-1	-1	-1	39	-1	31	20	-1	38	-1	44	-1	-1	-1	-1	-1	-1	-1	43	-1	8	15	14	-1	-1	11	-1	22	-1	42	2	47	4	32	-1	-1	25	41	-1	37	-1	-1
46	-1	-1	-1	-1	-1	19	30	-1	22	-1	-1	36	-1	10	48	-1	28	-1	14	-1	13	20	18	12	35	38	23	-1	-1	-1	-1	-1	27	-1	8	-1	-1	-1	-1	29	-1	-1	31	-1	-1	15	-1	-1
41	-1	47	-1	-1	-1	-1	19	29	-1	46	-1	-1	-1	16	34	-1	-1	11	6	37	24	31	21	-1	-1	-1	9	-1	-1	-1	-1	-1	-1	-1	1	-1	25	-1	-1	-1	22	-1	2	-1	-1	44	43	-1
-1	-1	-1	-1	1	-1	32	-1	-1	41	-1	-1	11	47	-1	-1	-1	-1	15	-1	45	4	25	-1	-1	-1	19	-1	-1	-1	20	-1	46	16	39	-1	-1	31	-1	24	18	-1	14	33	-1	-1	-1	5	-1
18	-1	-1	12	-1	43	3	4	14	-1	-1	-1	-1	-1	-1	1	41	35	36	33	39	16	-1	-1	-1	-1	-1	-1	31	-1	-1	-1	44	-1	-1	-1	38	-1	11	-1	-1	-1	-1	9	13	-1	27	6	-1
-1	-1	48	-1	37	25	-1	-1	-1	7	13	-1	-1	-1	43	31	-1	-1	4	24	-1	-1	-1	46	41	27	-1	-1	-1	-1	-1	-1	-1	-1	1	40	36	14	9	-1	16	-1	-1	-1	-1	-1	-1	23	34
14	36	24	-1	-1	11	-1	-1	-1	-1	42	-1	-1	37	30	-1	2	47	-1	-1	-1	10	32	5	-1	1	40	15	-1	-1	-1	-1	-1	-1	17	-1	13	26	45	-1	43	-1	-1	38	12	-1	-1	3	16
3	-1	-1	-1	-1	-1	-1	28	32	-1	17	1	26	-1	-1	-1	-1	8	44	-1	-1	15	47	34	-1	-1	12	-1	-1	20	-1	40	-1	22	33	43	24	-1	-1	36	6	14	-1	-1	-1	-1	49	-1	-1
-1	-1	-1	-1	-1	31	35	-1	3	2	-1	-1	-1	44	7	12	-1	33	-1	-1	-1	19	5	8	-1	-1	36	-1	24	-1	43	-1	-1	14	-1	-1	-1	-1	28	-1	49	-1	-1	37	17	-1	16	-1	-1
-1	-1	-1	-1	-1	33	-1	-1	-1	46	18	7	5	-1	-1	-1	22	-1	-1	-1	-1	20	-1	31	-1	-1	-1	-1	47	32	35	-1	-1	-1	-1	-1	-1	-1	-1	39	13	26	30	42	-1	-1	38	11	-1
-1	-1	-1	-1	-1	-1	-1	-1	-1	-1	-1	9	-1	42	-1	47	-1	16	26	-1	-1	-1	46	10	13	30	48	-1	1	44	-1	37	-1	-1	36	7	3	-1	32	-1	-1	17	28	-1	27	2	-1	-1	-1
-1	-1	-1	22	30	-1	-1	-1	-1	-1	-1	19	-1	-1	-1	23	-1	-1	14	-1	34	2	-1	-1	3	-1	43	33	-1	-1	-1	39	7	-1	25	-1	10	37	42	-1	-1	-1	-1	-1	-1	13	47	-1	-1
-1	10	-1	-1	-1	-1	17	14	-1	-1	38	-1	-1	-1	-1	-1	-1	29	-1	-1	-1	-1	-1	42	-1	18	7	41	-1	-1	-1	15	-1	49	-1	-1	9	46	-1	-1	-1	-1	34	-1	-1	-1	-1	-1	44
-1	-1	-1	48	27	-1	-1	39	-1	43	35	-1	41	-1	-1	-1	-1	36	9	-1	5	28	44	-1	-1	32	4	-1	-1	-1	-1	45	26	-1	13	-1	-1	29	-1	16	-1	-1	33	-1	7	-1	46	-1	40
-1	-1	43	-1	10	-1	44	33	35	25	-1	-1	-1	30	-1	45	-1	39	-1	-1	-1	-1	24	-1	-1	-1	-1	-1	-1	-1	-1	-1	-1	-1	-1	15	-1	-1	-1	2	-1	-1	48	29	-1	41	-1	-1	-1
-1	-1	-1	-1	-1	-1	33	-1	17	20	-1	18	-1	41	-1	43	44	37	-1	-1	-1	12	-1	-1	-1	-1	15	-1	6	-1	-1	4	-1	-1	23	-1	28	38	36	47	-1	-1	3	-1	30	16	-1	31	-1
-1	-1	-1	-1	22	-1	-1	-1	39	-1	-1	13	-1	-1	41	-1	42	-1	-1	-1	11	-1	18	-1	29	-1	-1	38	-1	-1	17	-1	5	45	-1	-1	-1	-1	-1	-1	-1	-1	-1	-1	35	-1	-1	-1	-1
17	-1	40	-1	-1	39	-1	-1	-1	-1	-1	-1	-1	-1	9	46	-1	-1	-1	5	-1	48	30	-1	22	6	-1	-1	27	-1	26	7	38	18	-1	-1	-1	-1	49	-1	41	-1	-1	-1	-1	-1	-1	14	2
9	-1	-1	2	-1	-1	-1	-1	-1	-1	-1	-1	-1	-1	-1	14	23	21	-1	-1	-1	17	4	-1	-1	-1	-1	-1	-1	35	-1	-1	-1	-1	48	11	12	34	-1	-1	42	-1	-1	40	-1	-1	-1	38	28
20	-1	25	19	-1	-1	-1	-1	-1	-1	27	-1	-1	-1	-1	4	-1	38	-1	-1	36	32	-1	-1	-1	40	-1	34	41	-1	-1	33	-1	44	16	-1	-1	-1	-1	29	-1	-1	45	-1	-1	-1	17	-1	47
42	45	7	24	12	-1	-1	-1	2	16	21	-1	-1	-1	-1	33	-1	-1	32	15	20	-1	-1	-1	28	-1	-1	10	36	-1	-1	-1	-1	-1	-1	22	-1	-1	-1	-1	26	5	-1	39	37	-1	1	-1	-1
-1	16	-1	-1	-1	8	-1	-1	18	1	-1	-1	-1	-1	-1	9	-1	-1	-1	-1	33	-1	-1	12	-1	-1	-1	4	-1	45	-1	20	-1	48	30	23	49	-1	13	-1	-1	35	-1	41	6	-1	-1	39	31
-1	4	1	-1	-1	9	-1	31	27	36	16	-1	-1	23	-1	-1	7	-1	38	32	-1	39	41	6	-1	-1	-1	-1	29	17	40	-1	-1	-1	-1	5	-1	-1	-1	-1	21	30	46	-1	-1	25	24	10	-1
-1	42	-1	-1	-1	-1	-1	11	47	-1	-1	20	-1	-1	-1	13	-1	-1	48	-1	-1	-1	-1	26	5	-1	-1	28	-1	3	-1	-1	-1	-1	-1	2	6	36	41	32	-1	-1	-1	-1	-1	-1	45	40	49
-1	7	-1	36	-1	-1	-1	-1	43	-1	-1	-1	-1	-1	-1	-1	-1	-1	29	16	-1	-1	-1	-1	-1	-1	-1	-1	-1	-1	-1	-1	-1	-1	-1	-1	-1	45	-1	-1	-1	-1	26	15	-1	-1	30	-1	42
37	-1	-1	-1	-1	17	10	13	38	45	-1	-1	-1	19	-1	39	21	-1	25	-1	-1	-1	-1	-1	23	8	35	-1	42	33	-1	-1	27	-1	-1	-1	-1	-1	-1	-1	-1	-1	12	-1	-1	-1	-1	48	-1
-1	43	-1	-1	-1	-1	-1	-1	7	34	-1	-1	-1	-1	-1	41	-1	45	-1	46	28	-1	-1	29	18	-1	24	14	-1	-1	49	44	-1	-1	4	-1	-1	1	-1	-1	-1	8	-1	36	16	-1	-1	-1	32
-1	33	46	32	-1	29	21	-1	-1	-1	15	-1	25	-1	4	-1	1	-1	12	-1	35	-1	-1	-1	-1	7	-1	-1	16	-1	13	34	6	-1	-1	18	14	-1	-1	19	-1	-1	-1	-1	-1	-1	-1	47	11
49	5	-1	42	-1	22	7	-1	25	-1	41	26	-1	-1	32	-1	12	-1	35	30	-1	29	-1	-1	-1	-1	-1	-1	-1	24	-1	-1	-1	-1	15	-1	20	-1	40	-1	48	-1	2	-1	31	-1	36	-1	3
-1	-1	-1	31	14	38	-1	-1	-1	10	7	-1	-1	18	22	26	-1	-1	49	34	-1	-1	-1	-1	-1	20	-1	-1	-1	2	44	-1	-1	13	-1	42	-1	4	5	15	-1	-1	-1	27	23	-1	29	-1	-1
-1	-1	4	43	-1	16	-1	-1	-1	-1	40	-1	-1	-1	-1	28	-1	13	20	-1	-1	22	-1	32	-1	-1	-1	-1	45	-1	-1	-1	30	-1	27	47	35	33	31	34	-1	49	37	-1	-1	-1	-1	41	-1
-1	-1	-1	40	36	2	-1	-1	49	-1	-1	42	-1	-1	-1	5	-1	-1	-1	39	-1	33	3	9	46	-1	-1	18	4	-1	-1	31	-1	-1	-1	-1	30	10	1	-1	19	38	-1	32	-1	20	7	8	-1
-1	-1	-1	-1	19	-1	24	23	48	-1	20	-1	8	-1	-1	7	-1	31	3	36	-1	-1	-1	-1	-1	44	30	-1	-1	29	-1	-1	-1	-1	-1	-1	45	43	46	-1	25	-1	-1	-1	9	-1	11	-1	18
-1	-1	-1	-1	-1	-1	-1	-1	-1	-1	-1	27	30	24	-1	-1	-1	42	37	-1	2	-1	-1	-1	34	-1	-1	-1	11	-1	-1	49	40	41	20	-1	17	18	-1	-1	22	36	-1	35	-1	5	-1	26	-1
35	-1	-1	-1	-1	-1	11	-1	22	15	-1	2	1	-1	-1	-1	47	18	43	-1	-1	-1	-1	-1	-1	-1	-1	-1	19	-1	14	10	-1	26	-1	-1	21	-1	29	-1	3	13	42	30	-1	-1	12	34	-1
49 
4 22 7 19
47 42 8 37
17 26 16 21
43 18 17 43
25 41 26 43
18 1 39 8
4 37 19 25
39 10 8 7
2 42 4 17
14 46 22 21
5 20 4 31
41 6 31 18
30 47 48 28
13 40 39 7
36 26 46 21
38 23 32 21
39 39 4 14
40 32 22 33
22 48 31 16
21 47 27 42
25 33 43 14
18 18 29 33
25 13 41 46
8 43 40 13
22 26 12 31
26 44 27 3
11 4 33 20
14 5 20 42
40 37 7 26
42 25 44 1
39 42 29 35
14 43 44 29
8 12 47 29
12 41 43 29
47 12 20 13
42 34 5 31
16 33 12 16
45 13 26 31
39 33 38 3
4 23 41 1
44 37 35 27
47 33 22 20
43 28 35 30
35 48 6 27
9 3 27 25
7 29 39 32
35 31 27 12
49 30 9 47
39 15 18 4
